c 3-queens problem
c 		 1.col	 2.col	 3.col
c 1. row: 	 1	 2	 3
c 2. row: 	 4	 5	 6
c 3. row: 	 7	 8	 9
p cnf 9 34
1 2 3  0
4 5 6  0
7 8 9  0
1 4 7  0
2 5 8  0
3 6 9  0
-1 -2 0
-1 -3 0
-2 -3 0
-4 -5 0
-4 -6 0
-5 -6 0
-7 -8 0
-7 -9 0
-8 -9 0
-1 -4 0
-1 -7 0
-4 -7 0
-2 -5 0
-2 -8 0
-5 -8 0
-3 -6 0
-3 -9 0
-6 -9 0
-4 -2 0
-7 -5 0
-7 -3 0
-5 -3 0
-8 -6 0
-2 -6 0
-1 -5 0
-1 -9 0
-5 -9 0
-4 -8 0
